0.02
0.00
0.00
0.02
0.00
0.01
0.00
0.00
0.02
0.01
0.01
0.01
0.01
0.02
0.03
0.02
0.01
0.02
0.04
0.02
0.00
0.02
0.01
0.02
0.03
0.01
0.02
0.02
0.04
0.00
0.01
0.00
0.01
0.01
0.03
0.02
0.00
0.00
0.04
0.02
0.02
0.01
0.01
0.01
0.03
0.02
0.00
0.00
0.03
0.01
0.02
0.02
0.01
0.02
0.04
0.02
0.02
0.01
0.02
0.02
0.01
0.01
0.00
0.01
0.04
0.02
0.00
0.02
0.03
0.02
0.01
0.04
0.01
0.01
0.02
0.02
0.03
0.01
0.03
0.00
0.01
0.04
0.03
0.02
0.02
0.00
0.02
0.01
0.05
0.01
0.00
0.04
0.04
0.04
0.03
0.01
0.02
0.01
0.03
0.01
0.02
0.04
0.04
0.03
0.04
0.01
0.02
0.02
0.04
0.01
0.01
0.01
0.00
0.01
0.01
0.00
0.01
0.02
0.01
0.01
0.01
0.01
0.03
0.02
0.02
0.02
0.01
0.00
0.01
0.01
0.02
0.01
0.02
0.02
0.02
0.01
0.01
0.03
0.01
0.02
0.02
0.01
0.01
0.02
0.01
0.02
0.01
0.03
0.01
0.04
0.01
0.01
0.02
0.03
0.03
0.02
0.01
0.02
0.03
0.03
0.01
0.01
0.02
0.03
0.01
0.01
0.02
0.02
0.02
0.02
0.02
0.00
0.01
0.05
0.03
0.01
0.02
0.01
0.01
0.03
0.03
0.01
0.02
0.02
0.01
0.02
0.02
0.01
0.01
0.04
0.04
0.02
0.03
0.03
0.01
0.03
0.01
0.00
0.02
0.04
0.04
0.02
0.04
0.03
0.00
0.06
0.01
0.02
0.01
0.02
0.04
0.04
0.04
0.02
0.03
0.03
0.01
0.01
0.01
0.03
0.01
0.01
0.01
0.01
0.01
0.01
0.02
0.04
0.01
0.01
0.01
0.03
0.01
0.00
0.01
0.04
0.01
0.01
0.01
0.03
0.02
0.03
0.01
0.02
0.01
0.01
0.01
0.02
0.01
0.02
0.01
0.04
0.04
0.02
0.01
0.01
0.04
0.01
0.03
0.01
0.01
0.04
0.04
0.01
0.01
0.03
0.02
0.05
0.03
0.05
0.01
0.03
0.05
0.02
0.04
0.04
0.02
0.04
0.02
0.07
0.05
0.05
0.04
0.05
0.03
0.04
0.03
0.05
0.01
0.04
0.01
0.04
0.04
0.01
0.05
0.03
0.03
0.04
0.01
0.05
0.04
0.05
0.03
0.01
0.05
0.04
0.02
0.04
0.02
0.05
0.03
0.01
0.03
0.02
0.04
0.05
0.04
0.06
0.02
0.06
0.05
0.01
0.02
0.01
0.04
0.02
0.04
0.04
0.02
0.05
0.01
0.05
0.04
0.00
0.01
0.00
0.00
0.02
0.01
0.01
0.01
0.00
0.02
0.04
0.03
0.01
0.01
0.01
0.02
0.03
0.01
0.00
0.02
0.04
0.02
0.01
0.02
0.00
0.03
0.04
0.02
0.01
0.04
0.04
0.04
0.04
0.06
0.05
0.03
0.01
0.04
0.00
0.05
0.04
0.04
0.03
0.04
0.01
0.03
0.02
0.02
0.00
0.06
0.05
0.03
0.02
0.04
0.04
0.02
0.02
0.01
0.01
0.04
0.05
0.04
0.04
0.05
0.01
0.03
0.02
0.05
0.02
0.03
0.04
0.04
0.01
0.05
0.01
0.02
0.01
0.04
0.01
0.01
0.05
0.05
0.01
0.04
0.01
0.03
0.01
0.01
0.01
0.01
0.05
0.03
0.02
0.04
0.02
0.02
0.01
0.01
0.01
0.03
0.03
0.04
0.04
0.03
0.01
0.03
0.01
0.00
0.01
0.01
0.01
0.01
0.01
0.01
0.02
0.01
0.00
0.02
0.02
0.03
0.01
0.01
0.04
0.01
0.05
0.02
0.01
0.03
0.01
0.04
0.01
0.03
0.05
0.01
0.02
0.01
0.01
0.05
0.01
0.05
0.04
0.00
0.03
0.01
0.01
0.03
0.01
0.01
0.01
0.04
0.04
0.04
0.04
0.00
0.04
0.05
0.01
0.01
0.03
0.03
0.04
0.03
0.03
0.00
0.06
0.04
0.02
0.02
0.01
0.01
0.02
0.03
0.03
0.01
0.04
0.05
0.01
0.02
0.01
0.04
0.04
0.05
0.03
0.01
0.07
0.05
0.02
0.04
0.04
0.02
0.04
0.04
0.04
0.01
0.06
0.03
0.02
0.01
0.03
0.01
0.04
0.05
0.04
0.01
0.08
0.01
0.02
0.01
0.04
0.00
0.04
0.05
0.05
0.01
0.04
0.03
0.02
0.01
0.03
0.00
0.02
0.01
0.00
0.03
0.03
0.00
0.02
0.04
0.03
0.03
0.00
0.01
0.00
0.03
0.03
0.01
0.01
0.02
0.01
0.04
0.00
0.01
0.00
0.04
0.02
0.01
0.00
0.03
0.04
0.05
0.01
0.00
0.04
0.03
0.02
0.04
0.05
0.02
0.05
0.04
0.05
0.03
0.04
0.04
0.05
0.02
0.03
0.01
0.03
0.05
0.04
0.01
0.02
0.03
0.02
0.02
0.04
0.01
0.04
0.04
0.04
0.04
0.04
0.06
0.03
0.02
0.04
0.01
0.03
0.05
0.04
0.04
0.03
0.00
0.02
0.02
0.04
0.03
0.02
0.04
0.04
0.04
0.03
0.04
0.01
0.02
0.05
0.03
0.05
0.04
0.04
0.03
0.04
0.04
0.02
0.02
0.04
0.02
0.04
0.01
0.04
0.00
0.05
0.04
0.03
0.05
0.05
0.02
0.02
0.01
0.04
0.01
0.01
0.01
0.02
0.02
0.01
0.01
0.01
0.02
0.04
0.04
0.00
0.02
0.00
0.00
0.01
0.01
0.00
0.01
0.02
0.04
0.00
0.04
0.02
0.00
0.00
0.01
0.01
0.04
0.04
0.01
0.01
0.04
0.00
0.01
0.00
0.04
0.05
0.04
0.04
0.02
0.01
0.05
0.00
0.01
0.01
0.04
0.03
0.05
0.04
0.02
0.04
0.02
0.02
0.01
0.01
0.01
0.05
0.04
0.04
0.02
0.06
0.04
0.01
0.01
0.01
0.01
0.05
0.03
0.04
0.02
0.06
0.04
0.05
0.01
0.04
0.01
0.05
0.04
0.04
0.02
0.05
0.05
0.04
0.02
0.04
0.01
0.06
0.05
0.04
0.06
0.06
0.04
0.06
0.02
0.06
0.03
0.06
0.04
0.02
0.05
0.06
0.03
0.05
0.04
0.04
0.04
0.03
0.01
0.01
0.02
0.01
0.01
0.01
0.02
0.02
0.01
0.02
0.04
0.02
0.02
0.01
0.03
0.01
0.01
0.02
0.01
0.01
0.03
0.04
0.01
0.01
0.02
0.02
0.01
0.04
0.05
0.02
0.06
0.04
0.05
0.05
0.02
0.01
0.02
0.05
0.04
0.04
0.02
0.05
0.05
0.04
0.01
0.02
0.01
0.05
0.02
0.05
0.05
0.05
0.01
0.06
0.03
0.01
0.01
0.04
0.01
0.05
0.04
0.04
0.01
0.06
0.02
0.04
0.02
0.05
0.05
0.04
0.03
0.04
0.01
0.07
0.03
0.06
0.03
0.04
0.05
0.04
0.04
0.05
0.01
0.07
0.03
0.05
0.04
0.04
0.02
0.03
0.04
0.06
0.04
0.08
0.04
0.04
0.02
0.05
0.02
0.02
0.05
0.06
0.06
0.08
0.06
0.02
0.05
0.04
0.03
0.02
0.08
0.01
0.02
0.01
0.02
0.02
0.02
0.01
0.01
0.02
0.03
0.03
0.01
0.02
0.05
0.01
0.03
0.02
0.01
0.01
0.04
0.02
0.02
0.02
0.04
0.01
0.02
0.02
0.03
0.02
0.01
0.04
0.05
0.02
0.01
0.01
0.04
0.01
0.05
0.04
0.01
0.01
0.04
0.01
0.03
0.06
0.01
0.04
0.01
0.01
0.02
0.01
0.02
0.01
0.05
0.03
0.02
0.02
0.02
0.01
0.02
0.02
0.04
0.01
0.06
0.04
0.02
0.05
0.03
0.01
0.02
0.04
0.02
0.05
0.03
0.06
0.01
0.01
0.05
0.01
0.01
0.05
0.02
0.02
0.03
0.03
0.02
0.01
0.06
0.05
0.06
0.06
0.02
0.01
0.02
0.03
0.01
0.02
0.05
0.01
0.06
0.06
0.03
0.05
0.04
0.03
0.01
0.05
0.05
0.02
0.00
0.05
0.00
0.01
0.01
0.00
0.01
0.01
0.02
0.01
0.01
0.01
0.01
0.01
0.01
0.01
0.02
0.02
0.02
0.02
0.01
0.01
0.01
0.01
0.02
0.02
0.01
0.01
0.01
0.04
0.01
0.01
0.01
0.02
0.05
0.00
0.01
0.03
0.01
0.03
0.02
0.02
0.01
0.05
0.04
0.03
0.01
0.05
0.00
0.04
0.01
0.01
0.00
0.02
0.04
0.05
0.01
0.05
0.05
0.04
0.03
0.01
0.05
0.04
0.05
0.04
0.01
0.01
0.04
0.04
0.05
0.05
0.04
0.03
0.04
0.06
0.02
0.01
0.03
0.05
0.00
0.03
0.06
0.03
0.05
0.05
0.01
0.04
0.02
0.05
0.02
0.06
0.05
0.03
0.04
0.04
0.01
0.01
0.01
0.05
0.03
0.06
0.17
0.05
0.05
0.04
0.04
0.05
0.00
0.00
0.00
0.00
0.01
0.00
0.01
0.02
0.01
0.01
0.00
0.05
0.00
0.02
0.04
0.02
0.01
0.02
0.10
0.02
0.02
0.04
0.01
0.02
0.04
0.02
0.01
0.03
0.10
0.02
0.02
0.04
0.03
0.00
0.04
0.01
0.02
0.04
0.07
0.04
0.02
0.04
0.01
0.01
0.05
0.02
0.03
0.01
0.06
0.03
0.01
0.04
0.03
0.02
0.05
0.03
0.03
0.00
0.14
0.01
0.02
0.04
0.03
0.01
0.07
0.02
0.05
0.01
0.07
0.03
0.01
0.05
0.00
0.05
0.03
0.02
0.06
0.02
0.06
0.03
0.01
0.04
0.04
0.05
0.04
0.02
0.07
0.02
0.08
0.03
0.03
0.04
0.00
0.04
0.05
0.01
0.04
0.01
0.17
0.04
0.02
0.04
0.01
0.05
0.03
0.03
0.06
0.02
0.08
0.03
0.00
0.02
0.01
0.01
0.00
0.01
0.02
0.01
0.03
0.01
0.06
0.02
0.02
0.05
0.06
0.06
0.02
0.04
0.00
0.05
0.04
0.02
0.04
0.05
0.03
0.04
0.05
0.05
0.02
0.06
0.06
0.03
0.03
0.05
0.04
0.04
0.02
0.05
0.02
0.06
0.04
0.02
0.05
0.04
0.02
0.03
0.02
0.01
0.03
0.07
0.05
0.02
0.04
0.06
0.02
0.05
0.03
0.01
0.02
0.05
0.03
0.04
0.04
0.05
0.06
0.05
0.03
0.05
0.02
0.08
0.04
0.02
0.01
0.04
0.06
0.05
0.03
0.04
0.04
0.05
0.03
0.02
0.01
0.06
0.04
0.05
0.04
0.04
0.03
0.08
0.05
0.03
0.02
0.03
0.05
0.05
0.06
0.03
0.02
0.06
0.05
0.02
0.02
0.05
0.04
0.04
0.06
0.02
0.02
0.06
0.01
0.02
0.01
0.02
0.02
0.02
0.02
0.05
0.02
0.03
0.05
0.04
0.05
0.05
0.04
0.04
0.03
0.06
0.05
0.05
0.04
0.04
0.04
0.03
0.07
0.02
0.03
0.03
0.04
0.05
0.05
0.04
0.05
0.04
0.05
0.04
0.02
0.05
0.04
0.04
0.03
0.05
0.06
0.05
0.05
0.02
0.06
0.06
0.04
0.06
0.05
0.05
0.08
0.06
0.09
0.05
0.03
0.06
0.04
0.05
0.05
0.05
0.06
0.06
0.06
0.04
0.03
0.06
0.04
0.05
0.06
0.06
0.06
0.04
0.04
0.05
0.04
0.06
0.04
0.04
0.07
0.09
0.05
0.05
0.04
0.03
0.04
0.05
0.05
0.06
0.05
0.05
0.06
0.01
0.05
0.04
0.04
0.05
0.04
0.08
0.05
0.05
0.05
0.06
0.04
0.05
0.05
0.06
0.04
0.05
0.04
0.01
0.70
0.01
0.01
0.02
0.05
0.02
0.01
0.00
0.05
0.04
0.06
0.04
0.05
0.04
0.02
0.03
0.01
0.06
0.03
0.05
0.07
0.04
0.06
0.05
0.03
0.05
0.04
0.09
0.05
0.03
0.04
0.04
0.05
0.02
0.02
0.04
0.02
0.05
0.04
0.05
0.08
0.04
0.06
0.04
0.06
0.05
0.02
0.07
0.05
0.07
0.08
0.08
0.05
0.04
0.05
0.03
0.05
0.06
0.07
0.05
0.09
0.05
0.05
0.05
0.04
0.06
0.05
0.05
0.06
0.02
0.05
0.05
0.04
0.04
0.02
0.05
0.05
0.06
0.05
0.02
0.06
0.05
0.05
0.05
0.04
0.10
0.07
0.06
0.02
0.02
0.04
0.06
0.06
0.04
0.04
0.08
0.04
0.07
0.06
0.02
0.06
0.05
0.07
0.03
0.06
0.07
0.03
0.09
0.01
0.00
0.08
0.01
0.03
0.03
0.05
0.00
0.01
0.04
0.03
0.05
0.04
0.04
0.07
0.04
0.05
0.34
0.04
0.04
0.02
0.06
0.05
0.03
0.05
0.05
0.04
0.08
0.06
0.08
0.05
0.04
0.05
0.04
0.05
0.02
0.00
0.06
0.05
0.03
0.06
0.04
0.06
0.06
0.05
0.05
0.06
22.42
0.06
0.04
0.06
0.04
0.06
0.05
0.04
0.04
0.06
0.02
0.06
0.02
0.05
0.04
0.05
0.05
0.07
0.03
0.02
0.08
0.10
0.06
0.06
0.03
0.04
0.04
0.06
0.04
0.04
0.07
0.08
0.06
0.06
0.06
0.06
0.05
0.05
0.05
0.02
0.63
0.08
0.04
0.07
0.05
0.06
0.06
0.04
0.05
0.07
0.34
0.08
0.04
0.08
0.06
0.06
0.06
0.05
0.04
0.05
1.70
0.03
0.06
0.02
0.04
0.01
0.03
0.01
0.02
0.07
0.02
0.04
0.01
0.03
0.05
0.04
0.04
0.02
0.08
0.02
0.07
0.02
0.05
0.06
0.06
0.15
0.06
0.03
0.09
0.03
0.06
0.02
0.03
0.04
0.09
0.10
0.05
0.06
0.06
0.05
0.06
0.04
0.03
0.06
0.09
0.09
0.09
0.07
0.07
0.06
0.07
0.04
0.05
0.06
0.07
0.12
0.07
0.08
0.07
0.06
0.06
0.05
0.06
0.05
0.10
0.12
0.06
0.08
0.16
0.06
0.04
0.01
0.06
0.05
0.11
0.33
0.07
0.07
0.18
0.06
0.06
0.04
0.04
0.06
0.14
0.28
0.08
0.02
0.14
0.08
0.07
0.06
0.06
0.04
0.15
0.39
0.09
0.03
0.12
0.08
0.05
0.08
0.04
0.05
0.15
0.23
0.07
0.06
0.12
0.08
0.07
0.08
0.06
0.05
0.01
0.06
0.00
0.01
0.01
0.02
0.06
0.01
0.02
0.05
0.05
0.07
0.05
0.07
0.05
0.05
0.07
0.02
0.02
0.04
0.07
0.23
0.06
0.06
0.07
0.04
0.05
0.02
0.05
0.04
0.20
0.06
0.06
0.08
0.11
0.04
0.03
0.02
0.05
0.07
0.06
0.07
0.06
0.04
0.19
0.05
0.03
0.04
0.00
0.05
0.07
0.04
0.06
0.02
0.12
0.05
0.07
0.07
0.06
0.05
0.04
0.05
0.08
0.03
0.06
0.06
0.06
0.10
0.08
0.06
0.07
0.07
0.06
0.06
0.07
0.05
0.08
0.07
0.05
0.06
0.06
0.09
0.07
0.05
0.09
0.07
0.04
0.06
0.07
0.07
0.05
0.09
0.06
0.07
0.11
0.06
0.06
0.07
0.05
0.07
0.05
0.07
0.07
0.06
0.07
0.08
0.06
0.06
0.10
0.02
0.07
0.04
0.05
0.01
0.01
0.05
0.07
0.05
0.01
0.05
0.05
0.07
0.06
0.08
0.11
0.03
0.04
0.03
0.06
0.06
0.06
0.12
0.06
0.05
0.08
0.02
0.05
0.04
0.00
0.12
0.06
0.33
0.27
0.09
0.09
0.03
0.06
0.02
0.01
0.04
0.06
0.58
0.06
0.08
0.09
0.05
0.05
0.05
0.02
0.07
0.04
0.95
0.06
0.09
0.10
0.06
0.05
0.08
0.04
0.04
0.05
0.95
0.05
0.08
0.18
0.07
0.05
0.06
0.06
0.06
0.06
0.78
0.06
0.07
0.25
0.06
0.05
0.07
0.05
0.05
0.06
0.59
0.05
0.06
0.17
0.07
0.06
0.08
0.05
0.07
0.03
1.84
0.08
0.06
0.29
0.06
0.07
0.06
0.06
0.07
0.06
1.35
0.06
0.05
0.37
0.04
0.07
0.08
0.06
1.84
0.30
0.04
0.02
0.02
0.05
0.04
0.06
0.03
0.03
0.08
0.06
0.05
0.05
0.02
0.07
0.07
0.07
0.09
0.03
0.07
0.05
0.05
0.07
0.09
0.06
0.07
0.05
0.07
0.01
0.05
0.06
0.04
0.06
0.06
0.04
0.02
0.08
0.02
0.04
0.08
0.05
0.04
0.09
0.02
0.08
0.05
0.07
0.07
0.05
0.08
0.05
0.05
0.09
0.02
0.07
0.06
0.08
0.06
0.05
0.07
0.06
0.06
0.07
0.08
0.07
0.04
0.06
0.05
0.08
0.07
0.06
0.06
0.07
0.08
0.05
0.05
0.06
0.06
0.06
0.07
0.07
0.05
0.07
0.07
0.05
0.04
0.06
0.06
0.06
0.07
0.06
0.05
0.06
0.05
0.30
0.05
0.07
0.07
0.06
0.06
0.06
0.08
0.08
0.08
0.05
0.06
0.07
0.07
0.11
0.03
0.12
0.02
0.05
0.05
0.04
0.05
0.02
0.03
0.01
0.06
0.08
0.05
0.08
0.05
0.09
0.03
0.08
0.04
0.03
0.06
0.08
0.08
0.10
0.06
0.11
0.07
0.05
0.06
0.03
0.06
0.08
0.37
0.10
0.08
0.07
0.09
0.07
0.05
0.04
0.06
0.05
0.56
0.07
0.17
0.12
0.05
0.07
0.01
0.06
0.07
0.07
0.57
0.06
0.05
0.04
0.05
0.06
0.04
0.05
0.06
0.05
0.50
0.09
0.09
0.08
0.09
0.09
0.09
0.06
0.05
0.07
1.16
0.05
0.06
0.07
0.07
0.06
0.07
0.06
0.08
0.07
1.58
0.08
0.10
0.07
0.09
0.07
0.07
0.05
0.07
0.09
0.58
0.06
0.08
0.10
0.06
0.06
0.07
0.08
0.07
0.14
2.40
0.07
0.09
0.08
0.07
0.05
0.06
0.07
0.01
0.01
0.01
0.01
0.02
0.01
0.01
0.03
0.02
0.02
0.04
0.03
0.00
0.02
0.08
0.02
0.05
0.02
342.80
0.07
0.01
0.05
0.01
0.02
0.07
0.03
0.03
0.02
293.63
0.06
0.01
0.04
0.04
0.02
0.13
0.02
0.01
0.03
280.20
0.15
0.01
0.04
0.05
0.03
0.09
0.02
0.05
0.03
320.77
0.08
0.01
0.04
0.00
0.05
0.08
0.04
0.05
0.04
381.73
0.19
0.01
0.03
0.03
0.05
0.08
0.03
0.06
0.06
478.71
0.11
0.01
0.08
0.01
0.04
0.08
0.03
0.07
0.05
614.39
0.11
0.02
0.06
0.02
0.06
0.08
0.03
0.06
0.06
580.16
0.20
0.01
0.08
0.06
0.05
0.05
0.03
0.03
0.05
23.07
0.19
0.01
0.09
0.04
0.05
0.05
0.04
0.01
0.04
616.20
0.23
0.03
0.02
0.01
0.01
0.01
0.01
0.01
0.01
0.01
0.02
0.04
0.02
0.04
0.05
0.04
0.07
0.01
0.03
0.05
0.05
0.05
0.07
0.05
0.06
0.05
0.05
0.02
0.03
0.06
0.04
0.03
0.07
0.04
0.05
0.05
0.03
0.04
0.04
0.08
0.05
0.07
0.06
0.05
0.08
0.06
0.03
0.06
0.05
0.06
0.07
0.06
0.05
0.06
0.07
0.04
0.03
0.05
0.03
0.07
0.05
0.05
0.04
0.04
0.06
0.04
0.04
0.05
0.03
0.07
0.05
0.04
0.06
0.05
0.06
0.04
0.18
0.02
0.03
0.05
0.16
0.05
0.05
0.06
0.07
0.04
0.04
0.04
0.04
0.04
0.07
0.04
0.12
0.05
0.06
0.04
0.05
0.03
0.05
0.10
0.05
0.05
0.03
0.07
0.07
0.02
0.04
0.03
0.04
0.06
0.06
0.03
0.01
0.01
0.04
0.01
0.01
0.06
0.02
0.03
0.04
0.09
0.06
0.13
0.07
0.07
0.01
0.03
0.01
0.18
1.75
0.49
0.11
0.16
0.06
0.05
0.07
0.07
0.06
0.16
1.11
0.13
0.10
0.05
0.03
0.08
0.07
0.06
0.06
0.05
0.27
0.07
0.07
0.11
0.05
0.06
0.13
0.09
0.09
0.06
0.21
0.07
0.08
0.07
0.04
0.47
0.08
0.07
0.05
0.05
0.67
0.07
0.17
0.09
0.04
0.06
0.06
0.06
0.03
0.07
0.28
0.14
0.12
0.09
0.05
0.07
0.06
0.04
0.06
0.08
0.23
0.09
0.10
0.11
0.07
0.09
0.06
0.05
0.05
0.09
0.21
0.09
0.08
0.10
0.07
0.08
0.06
0.03
0.05
0.06
0.19
0.07
0.12
0.08
0.05
0.05
0.06
0.07
0.07
0.07
0.54
0.03
0.05
0.08
0.01
0.02
0.02
0.08
0.02
0.01
0.05
0.06
0.02
0.06
0.07
0.05
0.04
0.03
0.10
0.06
0.15
0.08
0.00
0.06
0.09
0.08
0.04
0.08
0.09
0.04
0.12
0.06
0.04
0.06
0.07
0.06
0.04
0.06
0.06
0.04
0.07
0.22
0.06
0.19
0.06
0.12
0.08
0.04
0.07
0.05
0.04
0.04
0.03
0.06
0.06
0.06
0.07
0.09
15.84
0.06
0.09
0.05
0.05
0.06
0.08
0.07
0.06
0.06
0.34
0.05
0.06
0.07
0.06
0.09
0.11
0.12
0.10
0.06
0.07
0.05
0.07
0.16
0.05
0.07
0.10
0.06
0.10
0.07
102.92
0.04
0.07
0.08
0.06
0.08
0.08
0.10
0.06
0.10
0.84
0.04
0.05
0.06
0.06
0.07
0.08
0.20
0.09
0.05
43.55
0.05
0.07
0.01
0.01
0.31
0.04
0.01
0.05
0.21
0.04
0.38
0.04
0.05
0.09
0.12
0.07
0.07
0.04
0.06
0.26
0.09
0.19
0.06
0.03
0.13
0.07
0.07
0.09
0.07
0.10
0.07
0.06
0.05
0.03
0.10
0.07
0.07
0.07
0.05
0.31
0.09
0.09
0.05
0.03
0.14
0.06
0.08
0.14
0.05
0.18
0.06
0.30
0.06
0.07
0.25
0.09
0.07
0.06
0.05
0.07
0.07
0.06
0.25
0.02
0.11
0.06
0.07
0.08
0.06
0.08
0.11
0.07
0.05
0.06
0.20
0.07
0.08
0.06
0.04
0.06
0.19
0.47
0.15
0.06
0.12
0.07
0.07
0.07
0.06
0.06
0.18
0.05
0.07
0.10
0.09
0.08
0.08
0.09
0.07
0.07
0.08
0.12
0.07
0.17
0.11
0.08
0.08
0.12
0.07
0.07
0.08
0.08
0.02
0.02
0.03
0.02
0.04
0.00
0.04
0.10
0.03
0.04
0.05
0.08
0.10
0.05
0.06
1.30
0.06
1.19
0.02
0.06
0.04
2.52
0.36
0.04
0.06
2.42
0.06
0.27
0.03
0.03
0.06
0.78
0.09
0.06
0.10
0.37
0.04
3.69
0.04
0.02
0.08
0.49
0.16
0.07
0.09
1.91
0.16
1141.01
0.06
0.07
0.09
0.17
0.12
0.07
0.12
1.98
0.06
0.05
0.08
0.03
0.07
0.10
0.14
0.08
0.23
0.41
0.06
0.05
0.05
0.05
0.10
0.07
0.13
0.08
0.17
0.34
0.08
0.06
0.07
0.14
0.08
0.07
0.13
0.11
0.20
0.58
0.09
0.07
0.08
0.15
0.13
0.09
0.19
0.10
0.16
0.65
0.10
0.08
0.08
0.04
0.11
0.07
0.16
0.13
0.17
1.48
0.07
0.18
0.07
0.08
0.02
0.14
0.08
0.02
0.08
0.06
0.09
0.04
0.02
0.04
0.30
0.44
4.29
0.11
0.09
0.23
0.07
0.07
0.09
0.06
0.07
0.12
21.69
0.10
0.06
0.30
0.02
0.07
0.10
0.10
0.08
0.07
0.66
0.05
0.07
0.66
0.05
0.07
0.07
0.14
0.07
0.08
0.18
0.17
0.09
2.16
0.10
0.13
0.07
0.07
0.10
0.06
0.17
0.15
0.06
2.38
0.08
0.10
0.06
0.11
0.09
0.08
0.15
0.09
0.07
1.39
0.08
0.07
0.18
0.08
0.08
0.06
0.16
0.11
0.07
0.85
0.06
0.07
0.16
0.13
0.07
0.06
0.16
0.11
0.06
0.15
0.14
0.14
0.14
0.08
0.09
0.63
0.13
0.08
0.06
0.15
1.10
0.13
0.06
0.07
0.10
0.10
0.13
0.09
0.07
0.15
0.22
0.14
0.07
0.08
0.05
0.08
0.05
0.06
0.03
0.07
0.09
0.02
0.07
0.05
0.07
0.11
13.29
0.08
0.06
0.43
0.07
0.06
0.11
0.06
0.11
0.07
2.62
0.09
0.08
0.27
0.03
0.08
0.09
0.04
0.07
0.10
20.51
0.09
0.44
0.11
0.09
0.13
0.10
0.06
0.07
0.07
19.83
0.08
0.17
0.18
0.02
0.08
0.05
0.10
0.33
0.08
30.04
0.12
0.11
0.13
0.02
0.07
0.08
0.11
0.13
0.15
23.14
0.12
0.08
0.16
0.12
0.19
0.14
0.08
0.18
0.11
25.98
0.13
0.10
0.24
0.08
0.10
0.20
0.08
0.24
0.13
16.69
0.16
0.09
0.29
0.09
0.07
0.19
0.12
0.20
0.18
27.78
0.17
0.08
0.25
0.14
0.09
0.09
0.13
0.20
0.23
38.71
0.18
0.09
0.37
0.13
0.08
0.10
0.15
0.03
1.64
0.05
0.06
0.02
0.02
0.12
0.15
0.02
0.05
0.15
0.37
0.11
0.11
0.07
0.37
0.07
0.18
0.09
0.05
0.13
0.07
0.15
0.12
0.40
0.11
0.07
0.08
0.13
0.12
0.14
0.20
0.10
0.09
0.11
0.12
0.09
0.16
0.12
0.08
0.17
0.10
0.14
0.10
0.12
0.16
0.08
0.10
0.09
0.09
0.13
0.08
0.09
0.14
0.08
0.07
0.20
0.12
0.11
0.10
0.14
0.08
0.12
0.13
0.09
0.20
0.08
0.14
0.13
0.10
0.14
0.09
0.06
0.14
0.12
0.24
0.11
0.11
0.11
0.11
0.19
0.09
0.10
0.09
0.17
0.17
0.11
0.08
0.08
0.10
0.15
0.10
0.08
0.08
0.20
0.11
0.28
0.07
0.07
0.17
0.16
0.10
0.31
0.10
0.69
0.08
0.07
0.09
0.09
0.32
0.10
3.54
0.05
0.02
0.02
0.09
0.06
0.04
0.05
0.05
0.17
0.11
1.04
0.14
0.09
0.23
0.09
0.19
0.09
0.19
0.07
0.08
0.20
0.17
0.37
0.19
0.09
0.12
0.14
0.06
0.10
0.21
0.62
0.13
0.13
0.27
0.17
0.15
0.11
0.09
0.08
0.17
0.93
0.09
0.13
0.12
0.11
0.12
0.12
0.10
0.17
0.19
1.11
0.14
0.10
0.09
0.06
0.09
0.10
0.11
0.15
0.17
4.65
0.11
0.24
0.12
0.08
0.09
0.08
0.10
0.14
0.12
1.25
0.12
0.12
0.43
0.10
0.08
0.11
0.09
0.14
0.11
2.72
0.30
0.17
0.43
0.10
0.05
0.11
0.11
0.12
0.11
5.36
0.10
0.20
0.48
0.15
0.07
0.11
0.10
0.12
0.15
3.90
0.10
0.19
0.08
0.18
0.10
0.09
0.23
0.01
0.01
0.02
0.02
0.02
0.01
0.00
0.05
0.01
0.02
0.03
0.04
0.03
0.02
0.08
0.04
0.04
0.06
642.49
0.06
0.03
0.07
0.02
0.05
0.09
0.03
0.04
0.04
732.91
0.07
0.03
0.05
0.04
0.07
0.09
0.03
0.06
0.05
1497.11
0.10
0.03
0.05
0.03
0.05
0.10
0.01
0.05
0.06
1067.99
0.18
0.04
0.06
0.07
0.06
0.13
0.02
0.07
0.05
1821.47
0.19
0.03
0.06
0.04
0.06
0.09
0.04
0.05
0.06
1884.34
0.44
0.03
0.07
0.06
0.05
0.21
0.04
0.06
0.04
3338.01
0.19
0.04
0.04
0.04
0.03
0.18
0.04
0.04
0.06
3028.13
0.22
0.04
0.10
0.05
0.03
0.40
0.03
0.05
0.05
239.79
0.19
0.04
0.10
0.07
0.02
0.33
0.04
0.07
0.06
204.35
0.10
0.01
0.01
0.02
0.02
0.01
0.01
0.01
0.02
0.02
0.01
0.05
0.10
0.05
0.02
0.10
0.06
0.03
0.05
0.02
0.34
0.09
0.07
0.06
0.12
0.10
0.05
0.03
0.05
0.03
0.29
0.08
0.10
0.06
0.45
0.06
0.06
0.04
0.05
0.02
0.38
0.05
0.08
0.06
0.11
0.08
0.05
0.04
0.05
0.04
0.81
0.04
0.06
0.04
0.11
0.08
0.05
0.04
0.05
0.03
0.43
0.06
0.07
0.06
0.12
0.07
0.05
0.04
0.01
0.05
1.14
0.07
0.08
0.03
0.12
0.06
0.05
0.04
0.04
0.04
2.24
0.07
0.08
0.06
0.12
0.08
0.03
0.04
0.05
0.04
1.32
0.05
0.10
0.06
0.14
0.08
0.04
0.04
0.04
0.05
2.94
0.05
0.10
0.07
0.08
0.11
0.05
0.02
0.04
0.03
1.87
0.04
0.02
0.01
0.02
0.04
0.02
0.36
0.01
0.02
0.16
0.07
0.08
0.07
0.05
0.12
0.04
0.05
0.11
0.43
5.15
0.12
0.07
0.05
0.08
0.09
0.06
0.05
0.09
0.11
7.82
0.10
0.07
0.06
0.06
0.10
0.06
0.04
0.09
0.27
5.10
0.11
0.06
0.05
0.10
0.10
0.06
0.06
0.03
0.38
9.28
0.16
0.10
0.06
0.19
0.10
0.06
0.05
0.13
0.38
2.83
0.20
0.10
0.05
0.13
0.10
0.06
0.06
0.05
0.40
14.00
0.11
0.08
0.04
0.04
0.08
0.08
0.08
0.09
0.15
6.93
0.16
0.13
0.06
0.06
0.10
0.08
0.06
0.07
0.42
17.49
0.08
0.16
0.06
0.04
0.08
0.07
0.06
0.06
0.23
2.32
0.09
0.17
0.06
0.15
0.14
0.06
0.04
0.06
0.26
20.90
0.02
0.01
13.22
0.01
0.01
0.01
1.26
0.01
0.04
0.06
0.14
0.05
0.07
0.16
0.07
0.07
0.04
0.08
0.10
1.29
0.29
0.06
0.12
0.07
0.08
0.06
0.06
0.16
0.06
0.34
0.17
0.05
0.10
0.07
0.10
0.05
0.06
4.97
0.10
0.07
0.19
0.06
0.11
0.06
0.07
0.12
0.09
0.12
0.07
0.31
0.07
0.08
0.08
0.08
0.06
0.09
0.29
0.10
0.03
0.09
0.15
0.13
0.09
0.05
0.07
0.10
0.17
0.07
0.05
0.10
0.11
0.10
0.13
0.08
0.07
0.10
0.31
0.28
0.09
0.16
0.16
0.08
0.12
0.10
0.07
0.11
0.23
0.19
0.15
0.24
0.16
0.11
0.10
0.12
0.07
0.10
0.15
0.15
0.07
0.23
0.08
0.08
0.26
0.09
0.06
0.10
0.38
0.08
0.20
0.20
0.01
0.01
0.20
0.05
0.01
0.20
2.09
0.11
0.01
0.36
0.11
0.11
0.07
0.07
0.10
0.10
0.08
0.15
0.27
167.69
0.19
0.38
0.10
0.11
0.10
0.07
0.06
0.51
0.13
0.21
0.22
0.24
0.11
0.14
0.08
0.07
0.06
0.06
0.11
10.78
0.22
0.55
0.07
0.09
0.10
0.07
0.08
0.06
0.11
0.12
0.08
0.35
0.10
0.12
0.09
0.13
0.08
0.07
0.13
0.92
0.14
0.23
0.10
0.10
0.14
0.06
0.08
0.07
0.58
37.56
0.14
0.16
0.10
0.10
0.13
0.09
0.09
0.12
1.13
3.33
0.37
0.20
0.13
0.11
0.10
0.08
0.07
0.18
0.88
2.46
0.10
0.30
0.15
0.13
0.21
0.13
0.08
0.09
0.75
0.32
0.23
0.20
0.06
0.12
0.10
0.14
0.03
0.07
0.22
1.84
0.02
0.02
0.06
0.05
0.15
0.05
1.21
0.07
29.75
0.06
0.08
1.07
0.26
0.16
0.13
0.72
0.10
0.27
0.11
0.19
0.08
1.31
0.24
0.27
0.27
3.67
0.08
0.10
0.38
0.08
0.21
0.71
0.19
0.29
0.10
4.31
0.09
0.53
0.67
0.25
0.10
0.12
0.19
0.38
0.07
1.17
0.82
0.19
0.16
0.23
0.56
0.71
0.18
0.36
0.07
0.30
0.26
0.26
0.33
0.14
0.16
0.39
0.21
0.30
0.09
0.25
0.16
0.21
0.57
0.07
0.13
0.53
0.13
0.31
0.09
0.16
2.01
0.14
0.11
0.11
0.12
1.10
0.63
0.25
0.13
0.17
1.19
0.10
0.15
0.11
0.38
0.54
0.29
0.18
0.08
0.51
1.68
0.15
0.14
0.17
0.28
0.34
0.28
0.19
0.07
0.27
1.04
0.14
0.14
0.16
0.02
4.02
0.31
0.04
0.07
0.05
0.44
0.05
0.02
0.09
0.10
0.05
1.92
0.10
0.08
0.54
0.11
0.09
0.16
0.53
0.21
0.09
3.62
0.19
0.56
0.62
0.07
1.14
0.39
2.27
0.16
0.24
11.12
0.21
0.56
0.63
0.05
0.32
0.68
0.64
0.14
0.14
9.62
0.20
0.32
0.34
9.82
0.14
0.14
0.17
0.11
0.13
21.49
0.12
0.39
0.34
0.22
0.17
0.09
0.36
0.14
0.16
1.41
0.14
0.57
0.19
5.99
0.39
0.16
0.23
0.14
0.13
12.47
0.12
0.66
0.88
2.42
0.19
0.20
0.18
0.36
0.34
10.06
0.16
0.08
0.46
4.08
0.16
0.19
0.22
0.57
0.74
9.52
0.15
0.08
0.48
0.29
0.14
0.17
0.34
0.16
0.64
3.02
0.17
0.07
0.95
0.84
0.18
0.12
0.20
0.01
6.15
0.12
0.09
0.09
0.09
0.22
0.11
0.18
0.05
0.13
0.34
6.89
0.08
0.15
1.55
0.10
2.87
0.43
0.17
0.15
0.15
29.55
0.11
0.33
0.32
0.11
0.52
0.12
0.20
0.12
0.18
33.57
0.19
1.25
0.37
2.61
0.27
0.10
0.25
0.24
0.22
16.94
0.19
0.10
0.16
0.68
0.23
0.15
0.16
0.28
1.57
19.89
0.24
0.22
0.35
0.34
0.13
0.24
0.11
0.19
0.48
23.26
0.34
0.24
3.97
0.13
0.07
0.32
0.13
1.52
0.26
16.31
0.19
0.32
0.21
0.11
0.06
0.15
0.37
0.30
0.15
9.51
0.87
0.11
0.40
0.13
0.07
0.20
0.40
0.20
0.29
8.64
0.17
0.11
0.53
0.24
0.09
0.43
0.31
0.49
0.13
11.23
0.12
0.10
0.83
0.69
0.17
0.34
0.43
0.11
0.09
0.10
4.07
0.25
0.33
0.24
3.88
0.14
0.06
0.23
0.09
2.20
0.21
0.08
1.20
0.09
1.01
0.48
0.06
0.17
0.17
1.38
0.35
0.44
0.42
0.10
0.20
0.18
0.10
0.17
0.08
0.50
0.21
1.70
0.16
0.08
0.28
0.25
0.27
0.20
0.19
0.22
0.46
0.33
0.24
1.22
0.27
0.73
0.27
0.15
0.49
10.01
0.34
0.50
0.20
0.14
0.10
0.12
0.28
0.16
0.77
9.49
0.40
0.53
0.23
0.12
0.22
0.19
1.18
0.15
0.22
23.61
0.21
0.17
0.58
0.16
0.11
0.18
0.28
0.16
0.55
15.98
0.25
0.20
0.21
0.16
0.10
0.17
0.40
0.18
0.71
27.46
0.14
0.29
0.23
0.21
0.10
0.25
0.35
0.17
1.18
28.60
0.15
0.19
0.22
0.18
0.28
0.18
0.19
0.25
8.47
0.64
0.03
0.08
0.78
0.24
0.82
0.90
0.05
0.34
0.26
0.24
0.31
2.60
3.43
0.13
0.21
0.10
0.14
0.10
0.56
26.34
0.26
1.17
0.62
0.07
0.25
0.77
0.14
0.21
0.24
1.62
0.16
1.56
0.24
0.08
0.17
0.46
0.60
2.65
0.96
1.33
0.14
0.47
0.47
0.20
0.17
0.34
0.33
1.68
0.87
1.04
0.32
0.56
0.26
0.18
0.10
0.33
1.26
0.79
0.64
0.92
0.26
1.04
0.40
0.14
0.17
0.29
2.05
1.13
0.87
1.46
0.47
0.53
0.36
0.24
0.12
0.23
0.49
0.50
1.37
0.94
0.40
0.88
0.25
0.39
0.12
0.58
0.37
1.61
0.93
1.23
0.15
0.98
0.11
0.14
0.56
0.52
0.50
0.15
0.35
1.47
0.42
1.49
0.20
0.42
0.12
0.27
0.58
0.01
0.01
0.00
0.01
0.01
0.01
0.01
0.06
0.01
0.01
0.06
0.05
0.02
0.04
0.11
0.02
0.04
0.07
3272.10
0.09
0.05
0.04
0.06
0.04
0.30
0.04
0.05
0.06
4189.08
0.37
0.05
0.07
0.05
0.05
0.32
0.04
0.06
0.08
3290.53
0.32
0.06
0.07
0.05
0.05
0.57
0.02
0.07
0.05
5512.91
0.51
0.02
0.17
0.04
0.06
0.27
0.04
0.11
0.06
9455.26
0.31
0.04
0.14
0.04
0.04
0.37
0.04
0.09
0.05
3532.36
0.36
0.04
0.10
0.04
0.05
0.21
0.03
0.07
0.05
4990.30
0.37
0.05
0.09
0.01
0.07
0.13
0.03
0.06
0.06
5987.65
0.51
0.04
0.11
0.04
0.06
0.19
0.03
0.41
0.05
918.44
0.38
0.05
0.08
0.05
0.05
0.16
0.02
0.46
0.06
3257.15
0.66
0.02
0.01
0.01
0.01
0.00
0.02
0.01
0.01
0.02
0.00
0.09
0.13
0.06
0.09
0.19
0.05
0.03
0.04
0.03
0.21
0.11
0.07
0.06
0.10
0.09
0.08
0.05
0.02
0.02
0.29
0.15
0.14
0.07
0.21
0.09
0.07
0.04
0.05
0.06
0.29
0.07
0.13
0.05
0.19
0.17
0.07
0.02
0.01
0.14
0.28
0.06
0.12
0.06
0.11
0.19
0.14
0.06
0.01
0.34
0.34
0.07
0.20
0.06
0.10
0.18
0.06
0.03
0.04
0.34
0.42
0.06
0.20
0.05
0.12
0.17
0.06
0.04
0.05
0.14
0.50
0.03
0.48
0.05
0.10
0.25
0.05
0.03
0.01
0.07
0.46
0.03
0.07
0.04
0.13
0.22
0.06
0.06
0.03
0.10
0.68
0.05
0.17
0.05
0.18
0.21
0.06
0.04
0.01
0.06
0.50
0.02
0.02
0.02
0.02
0.02
0.01
0.35
0.01
0.50
0.01
0.08
0.84
0.23
0.37
1.00
0.12
0.08
0.08
0.39
12.45
0.21
0.15
0.12
0.59
1.42
0.07
0.07
0.11
0.43
23.38
0.22
0.39
0.06
0.09
0.32
0.08
0.07
0.08
1.04
37.61
0.15
0.30
0.16
0.13
0.21
0.12
0.06
0.09
0.64
11.23
0.16
0.17
0.08
0.06
0.78
0.08
0.07
0.06
0.05
10.52
0.20
0.17
0.10
0.08
0.51
0.08
0.16
0.06
0.18
72.61
0.20
0.23
0.08
0.08
1.12
0.13
0.12
0.14
0.10
43.89
0.23
0.28
0.08
0.05
0.62
0.11
0.17
0.07
0.10
264.41
0.23
0.25
0.09
2.42
0.86
0.14
0.13
0.07
0.98
34.95
0.23
0.25
0.09
0.06
1.44
0.13
0.26
0.08
1.20
11.88
0.05
0.01
60.48
0.06
0.05
0.04
0.03
0.10
0.19
0.05
0.08
0.23
0.13
0.10
0.12
0.06
0.08
0.17
0.11
6.72
0.99
0.10
0.09
0.12
0.13
0.14
0.07
0.16
0.09
0.37
0.13
0.16
0.12
0.13
0.14
0.11
0.10
0.14
0.28
0.13
0.38
0.19
0.12
0.11
0.11
0.10
1.29
0.12
0.39
0.18
0.12
0.15
0.15
0.14
0.12
0.08
0.24
0.23
0.39
0.48
0.22
0.14
0.22
0.13
0.12
0.12
0.61
0.18
0.14
0.99
2.81
0.21
0.14
0.15
0.16
0.20
0.49
0.28
0.31
0.42
4.49
0.15
0.15
0.16
0.19
0.13
0.47
0.11
0.44
421.94
1.65
0.17
0.11
0.17
0.37
0.23
0.56
0.19
0.35
1.49
2.16
0.10
0.16
0.15
0.28
0.37
0.60
0.27
0.77
12.52
0.02
0.03
0.02
0.03
0.06
0.90
8.97
0.02
0.03
0.05
0.17
0.67
0.15
0.13
0.29
0.12
0.07
0.10
0.58
3.71
0.22
0.23
0.15
0.09
0.22
0.21
0.08
0.73
0.48
1.83
0.38
0.13
0.13
0.09
0.72
0.22
0.10
0.10
0.08
1.48
0.51
0.51
0.12
0.11
0.31
0.41
0.11
0.08
0.30
0.44
0.19
0.20
0.24
0.11
0.40
0.38
0.11
0.07
0.22
3.90
0.74
0.28
0.13
0.07
0.39
0.37
0.08
0.10
1.31
0.26
0.51
0.34
0.61
0.09
0.49
0.81
0.10
0.09
1.08
0.21
0.92
0.54
1.07
0.11
0.40
0.30
0.21
0.08
0.33
0.15
2.70
0.37
0.51
0.09
0.43
0.29
0.13
0.11
1.04
0.95
0.80
0.51
0.35
0.24
0.88
0.33
0.21
0.09
1.20
0.72
0.02
0.02
0.08
0.07
0.06
0.14
1.60
0.90
1.06
2.14
0.32
0.36
4.20
0.29
0.21
2.51
0.12
1.88
0.76
0.40
0.10
0.28
2.35
0.14
0.74
1.70
0.29
0.66
0.38
0.24
0.24
0.36
2.52
0.23
1.35
2.16
1.07
0.39
0.48
0.14
0.60
1.43
5.38
0.19
0.44
1.80
4.12
0.72
0.39
0.09
0.64
2.89
1.28
1.09
0.60
1.31
0.91
1.03
0.27
0.11
1.43
0.35
4.09
0.34
2.15
1.54
1.09
0.98
0.14
0.14
0.14
8.13
2.36
0.23
0.15
1.20
13.43
0.77
0.16
0.30
0.32
3.92
4.00
0.26
1.32
1.50
4.32
0.41
0.20
0.40
0.70
8.79
4.98
0.31
0.99
1.77
1.18
0.55
0.29
0.22
0.48
1.42
4.71
0.26
0.72
2.58
10.27
2.35
0.33
0.21
0.02
10.70
1.22
0.04
0.04
0.80
6.60
0.07
1.27
0.06
0.18
0.67
0.32
0.78
0.93
1.79
0.17
0.08
0.96
0.20
0.39
0.17
0.43
2.73
0.07
1.15
0.39
0.18
0.83
4.00
0.50
0.55
0.19
0.29
0.09
0.80
0.07
0.14
2.84
4.45
0.44
0.36
0.23
0.47
0.07
0.53
0.25
0.84
0.49
4.70
0.82
0.61
0.86
0.36
0.07
0.30
0.19
0.32
0.27
0.55
0.54
0.76
17.99
0.32
0.09
0.56
0.19
0.28
0.20
1.27
0.39
0.47
1.73
0.79
0.86
0.26
0.27
0.26
0.21
0.67
1.13
0.75
2.41
0.35
0.65
0.18
0.68
0.37
0.22
0.78
0.42
0.63
8.31
0.30
0.77
0.32
0.30
0.46
0.12
0.53
0.54
0.76
2.37
0.24
1.85
0.32
0.33
0.57
0.16
26.24
0.01
101.49
0.09
0.09
0.08
0.07
0.06
0.16
0.38
0.05
0.25
0.12
68.85
1.05
0.65
0.97
0.22
0.22
0.41
0.08
0.22
0.17
34.58
3.99
0.56
0.30
0.13
0.36
0.20
0.18
0.24
0.38
10.16
4.07
0.47
0.27
0.60
1.87
0.53
0.30
0.18
0.48
3.14
0.90
0.40
0.38
1.35
0.36
0.15
1.19
0.38
4.38
2.88
2.58
0.70
2.03
0.17
3.92
0.84
0.55
0.34
1.72
1.83
3.16
0.37
9.64
0.27
0.66
0.27
0.34
0.15
1.84
1.57
1.34
0.41
0.41
0.69
0.41
0.18
0.66
0.29
1.12
2.32
0.27
1.04
0.58
0.36
0.37
0.52
0.19
0.72
1.47
0.96
0.59
2.21
0.30
0.63
1.11
0.32
0.31
1.71
1.01
3.27
3.02
1.35
0.88
0.71
1.08
0.18
1.91
0.19
4.15
0.01
1.67
0.05
0.05
0.06
0.27
0.39
0.01
0.77
0.61
3.62
0.59
0.08
3.69
0.44
0.52
0.52
0.45
2.85
0.24
0.56
0.12
0.27
0.34
0.11
0.98
2.82
2.16
0.27
0.17
7.09
0.36
0.82
0.25
0.11
0.21
0.41
3.19
0.67
0.23
6.19
0.36
0.33
0.32
2.01
0.17
0.25
17.94
0.50
0.32
6.18
0.60
0.49
0.43
0.63
0.58
0.13
5.89
0.37
0.21
3.48
0.55
0.45
0.48
0.43
1.52
0.15
1.09
0.56
0.81
3.86
0.47
1.19
0.59
1.10
2.05
0.18
2.53
73.48
1.46
1.91
0.78
0.24
0.51
0.57
0.28
0.14
1.76
0.51
1.87
4.92
0.23
0.50
0.46
0.46
0.24
0.17
1.13
0.31
1.12
3.47
0.39
0.30
0.29
0.81
0.36
0.15
4.30
0.02
59.07
0.25
0.14
0.07
0.64
0.06
8.19
0.18
0.09
0.34
0.22
4.44
1.95
1.60
1.76
0.09
1.69
0.56
0.27
0.25
0.35
120.14
3.92
81.34
0.15
0.85
0.27
0.93
0.26
0.42
0.45
12.10
2.44
2.61
0.51
3.79
1.21
0.40
0.85
0.31
0.65
3.00
0.73
13.97
0.49
1.60
0.17
0.53
2.54
0.51
1.22
0.48
1.66
0.90
0.45
1.11
0.45
0.61
0.86
0.51
1.38
1.25
0.48
3.31
0.29
0.47
2.41
0.96
3.27
0.39
1.93
3.99
1.01
0.32
0.36
3.49
1.20
0.26
1.13
2.64
1.86
19.93
0.48
1.83
0.40
4.89
0.27
0.42
1.68
0.81
0.83
1.27
0.41
50.88
0.24
2.29
0.43
0.34
0.92
0.33
1.07
2.74
0.32
1.05
0.53
3.20
0.38
0.55
1.19
0.01
0.01
0.01
0.01
0.02
0.01
0.01
0.01
0.01
0.01
0.04
0.06
0.02
0.06
0.14
0.03
0.09
0.08
28500.00
0.05
0.06
0.09
0.02
0.06
0.16
0.03
0.14
0.07
706.75
0.73
0.05
0.05
0.06
0.06
0.14
0.04
0.08
0.07
3540.73
0.94
0.05
0.05
0.05
0.06
0.17
0.04
0.07
0.09
2109.10
1.04
0.05
0.05
0.06
0.05
0.16
0.03
0.08
0.08
7487.93
0.81
0.04
0.08
0.06
0.05
0.17
0.06
0.07
0.06
6609.28
0.62
0.04
0.12
0.06
0.05
0.16
0.05
0.06
0.06
3640.09
0.54
0.05
0.08
0.07
0.04
0.15
0.04
0.05
0.06
5486.00
Generated functions: 5589
Total time: 126282.55s (35.08h)
Average time: 22.5948380748
